peakDumbCharging = 11100; 
Machine = anon_enum(16); 
machineSpeed = [3700,3700,3700,3700,3700,3700,3700,3700,3700,3700,3700,3700,3700,3700,3700,3700]; 
machineLoad = [3700,3700,3700,3700,3700,3700,3700,3700,3700,3700,3700,3700,3700,3700,3700,3700]; 
Car = anon_enum(8); 
demandCar = [12800,8000,7880,5320,9840,17120,13760,4520]; 
arrivalCar = [76,67,62,55,45,43,42,40]; 
departureCar = [80,70,67,58,49,52,47,43]; 
